instance_name = "short_n0259_r010_139";
instance_group = "short";
rsi_start = 0;
rsi_end = 139;
rsi_min_distance = 10;
rsi_max_distance = 139;
num_nodes = 259;
num_neighbors = 3158;
neighbors = [
[0, 1],
[0, 2],
[0, 3],
[0, 4],
[0, 5],
[0, 6],
[0, 7],
[0, 8],
[0, 10],
[0, 11],
[0, 12],
[0, 47],
[0, 48],
[0, 49],
[0, 72],
[0, 73],
[0, 179],
[0, 180],
[0, 188],
[0, 189],
[0, 202],
[0, 210],
[0, 211],
[0, 223],
[0, 225],
[0, 243],
[0, 254],
[0, 255],
[1, 2],
[1, 4],
[1, 7],
[1, 8],
[1, 10],
[1, 48],
[1, 72],
[1, 73],
[1, 74],
[1, 75],
[1, 180],
[1, 189],
[1, 202],
[1, 222],
[1, 223],
[1, 254],
[2, 4],
[2, 5],
[2, 8],
[2, 71],
[2, 75],
[2, 180],
[2, 188],
[2, 189],
[2, 200],
[3, 4],
[3, 5],
[3, 7],
[3, 8],
[3, 10],
[3, 11],
[3, 12],
[3, 13],
[3, 14],
[3, 48],
[3, 49],
[3, 179],
[3, 180],
[3, 188],
[3, 255],
[4, 5],
[4, 7],
[4, 8],
[4, 10],
[4, 48],
[4, 73],
[4, 74],
[4, 180],
[4, 189],
[4, 254],
[5, 8],
[5, 11],
[5, 13],
[5, 49],
[5, 75],
[5, 179],
[5, 180],
[5, 181],
[5, 188],
[5, 189],
[5, 190],
[6, 7],
[6, 8],
[6, 9],
[6, 10],
[6, 11],
[6, 12],
[6, 13],
[6, 14],
[6, 15],
[6, 16],
[6, 17],
[6, 20],
[6, 21],
[6, 49],
[6, 137],
[6, 141],
[6, 156],
[6, 168],
[6, 179],
[6, 188],
[6, 210],
[6, 211],
[6, 244],
[6, 255],
[7, 8],
[7, 10],
[7, 12],
[7, 13],
[7, 16],
[7, 47],
[7, 48],
[7, 49],
[7, 72],
[7, 73],
[7, 140],
[7, 180],
[7, 201],
[7, 202],
[7, 210],
[7, 211],
[7, 219],
[7, 222],
[7, 223],
[7, 243],
[7, 244],
[7, 253],
[7, 254],
[7, 255],
[8, 10],
[8, 11],
[8, 48],
[8, 49],
[8, 71],
[8, 73],
[8, 74],
[8, 75],
[8, 179],
[8, 180],
[8, 188],
[8, 189],
[8, 254],
[9, 10],
[9, 11],
[9, 12],
[9, 13],
[9, 14],
[9, 15],
[9, 16],
[9, 17],
[9, 18],
[9, 19],
[9, 20],
[9, 21],
[9, 25],
[9, 47],
[9, 49],
[9, 141],
[9, 156],
[9, 168],
[9, 179],
[9, 188],
[9, 210],
[9, 211],
[9, 223],
[9, 242],
[9, 244],
[9, 255],
[10, 11],
[10, 12],
[10, 13],
[10, 16],
[10, 47],
[10, 48],
[10, 49],
[10, 70],
[10, 72],
[10, 73],
[10, 74],
[10, 179],
[10, 180],
[10, 189],
[10, 201],
[10, 202],
[10, 210],
[10, 211],
[10, 219],
[10, 222],
[10, 223],
[10, 243],
[10, 244],
[10, 253],
[10, 254],
[10, 255],
[11, 13],
[11, 17],
[11, 49],
[11, 137],
[11, 141],
[11, 156],
[11, 168],
[11, 179],
[11, 180],
[11, 181],
[11, 188],
[12, 13],
[12, 14],
[12, 16],
[12, 21],
[12, 47],
[12, 49],
[12, 141],
[12, 179],
[12, 200],
[12, 202],
[12, 210],
[12, 211],
[12, 219],
[12, 222],
[12, 223],
[12, 227],
[12, 229],
[12, 243],
[12, 244],
[12, 245],
[12, 253],
[12, 254],
[12, 255],
[13, 14],
[13, 16],
[13, 17],
[13, 48],
[13, 49],
[13, 137],
[13, 141],
[13, 156],
[13, 168],
[13, 179],
[13, 180],
[13, 188],
[13, 211],
[13, 255],
[14, 15],
[14, 16],
[14, 17],
[14, 18],
[14, 20],
[14, 21],
[14, 22],
[14, 25],
[14, 137],
[14, 141],
[14, 156],
[14, 168],
[14, 179],
[14, 188],
[14, 202],
[14, 211],
[14, 219],
[14, 223],
[14, 244],
[14, 255],
[15, 16],
[15, 17],
[15, 18],
[15, 19],
[15, 20],
[15, 21],
[15, 22],
[15, 23],
[15, 24],
[15, 25],
[15, 26],
[15, 28],
[15, 29],
[15, 49],
[15, 56],
[15, 77],
[15, 137],
[15, 141],
[15, 147],
[15, 156],
[15, 171],
[15, 179],
[15, 211],
[15, 219],
[15, 220],
[15, 244],
[15, 255],
[16, 17],
[16, 21],
[16, 25],
[16, 47],
[16, 49],
[16, 200],
[16, 202],
[16, 210],
[16, 211],
[16, 219],
[16, 222],
[16, 223],
[16, 226],
[16, 229],
[16, 243],
[16, 244],
[16, 245],
[16, 247],
[16, 253],
[16, 254],
[16, 255],
[17, 19],
[17, 20],
[17, 22],
[17, 24],
[17, 26],
[17, 27],
[17, 28],
[17, 29],
[17, 51],
[17, 56],
[17, 137],
[17, 141],
[17, 142],
[17, 147],
[17, 155],
[17, 156],
[17, 168],
[17, 179],
[17, 209],
[17, 211],
[17, 244],
[18, 19],
[18, 20],
[18, 21],
[18, 22],
[18, 23],
[18, 24],
[18, 25],
[18, 26],
[18, 28],
[18, 77],
[18, 107],
[18, 136],
[18, 141],
[18, 144],
[18, 150],
[18, 151],
[18, 209],
[18, 211],
[18, 220],
[18, 255],
[19, 20],
[19, 22],
[19, 28],
[19, 56],
[19, 77],
[19, 137],
[19, 141],
[19, 144],
[19, 147],
[19, 156],
[19, 168],
[19, 171],
[19, 179],
[19, 211],
[20, 22],
[20, 23],
[20, 25],
[20, 26],
[20, 28],
[20, 29],
[20, 55],
[20, 56],
[20, 77],
[20, 107],
[20, 137],
[20, 140],
[20, 141],
[20, 142],
[20, 144],
[20, 145],
[20, 147],
[20, 151],
[20, 153],
[20, 155],
[20, 156],
[20, 168],
[20, 171],
[20, 179],
[20, 211],
[21, 22],
[21, 23],
[21, 24],
[21, 25],
[21, 28],
[21, 31],
[21, 42],
[21, 77],
[21, 101],
[21, 104],
[21, 136],
[21, 137],
[21, 144],
[21, 150],
[21, 174],
[21, 179],
[21, 183],
[21, 207],
[21, 209],
[21, 211],
[21, 219],
[21, 220],
[21, 227],
[21, 229],
[21, 234],
[21, 242],
[21, 244],
[21, 255],
[22, 23],
[22, 25],
[22, 26],
[22, 32],
[22, 77],
[22, 107],
[22, 137],
[22, 140],
[22, 141],
[22, 142],
[22, 144],
[22, 147],
[22, 151],
[22, 159],
[22, 171],
[22, 179],
[22, 208],
[22, 211],
[23, 24],
[23, 25],
[23, 26],
[23, 27],
[23, 28],
[23, 29],
[23, 30],
[23, 31],
[23, 32],
[23, 42],
[23, 77],
[23, 98],
[23, 106],
[23, 107],
[23, 108],
[23, 113],
[23, 116],
[23, 134],
[23, 140],
[23, 141],
[23, 143],
[23, 144],
[23, 150],
[23, 151],
[23, 158],
[23, 159],
[23, 162],
[23, 165],
[23, 171],
[23, 172],
[23, 174],
[23, 179],
[23, 182],
[23, 183],
[23, 185],
[23, 209],
[23, 220],
[24, 25],
[24, 26],
[24, 27],
[24, 28],
[24, 29],
[24, 30],
[24, 31],
[24, 77],
[24, 89],
[24, 98],
[24, 100],
[24, 101],
[24, 104],
[24, 107],
[24, 113],
[24, 123],
[24, 125],
[24, 126],
[24, 127],
[24, 128],
[24, 130],
[24, 132],
[24, 134],
[24, 136],
[24, 144],
[24, 150],
[24, 174],
[24, 179],
[24, 183],
[24, 185],
[24, 186],
[24, 188],
[24, 209],
[24, 217],
[24, 220],
[24, 235],
[25, 26],
[25, 28],
[25, 31],
[25, 47],
[25, 48],
[25, 59],
[25, 77],
[25, 101],
[25, 104],
[25, 136],
[25, 150],
[25, 183],
[25, 186],
[25, 209],
[25, 211],
[25, 220],
[26, 28],
[26, 29],
[26, 31],
[26, 32],
[26, 105],
[26, 107],
[26, 113],
[26, 123],
[26, 126],
[26, 127],
[26, 140],
[26, 141],
[26, 143],
[26, 144],
[26, 145],
[26, 146],
[26, 150],
[26, 151],
[26, 159],
[26, 171],
[26, 174],
[26, 175],
[26, 179],
[26, 183],
[26, 188],
[26, 220],
[27, 28],
[27, 29],
[27, 30],
[27, 31],
[27, 32],
[27, 83],
[27, 89],
[27, 98],
[27, 100],
[27, 101],
[27, 102],
[27, 104],
[27, 123],
[27, 125],
[27, 127],
[27, 128],
[27, 130],
[27, 133],
[27, 134],
[27, 136],
[27, 144],
[27, 149],
[27, 150],
[27, 174],
[27, 185],
[27, 186],
[27, 187],
[27, 217],
[27, 220],
[28, 29],
[28, 31],
[28, 32],
[28, 100],
[28, 101],
[28, 104],
[28, 107],
[28, 113],
[28, 123],
[28, 126],
[28, 130],
[28, 136],
[28, 141],
[28, 144],
[28, 150],
[28, 151],
[28, 159],
[28, 172],
[28, 174],
[28, 183],
[28, 186],
[28, 202],
[28, 209],
[28, 220],
[28, 235],
[29, 32],
[29, 104],
[29, 107],
[29, 113],
[29, 123],
[29, 140],
[29, 143],
[29, 144],
[29, 150],
[29, 151],
[29, 171],
[29, 174],
[29, 183],
[29, 187],
[29, 193],
[29, 220],
[30, 31],
[30, 32],
[30, 83],
[30, 86],
[30, 87],
[30, 88],
[30, 89],
[30, 91],
[30, 92],
[30, 95],
[30, 96],
[30, 97],
[30, 98],
[30, 99],
[30, 100],
[30, 101],
[30, 102],
[30, 104],
[30, 115],
[30, 119],
[30, 122],
[30, 123],
[30, 127],
[30, 128],
[30, 130],
[30, 133],
[30, 134],
[30, 144],
[30, 149],
[30, 150],
[30, 185],
[30, 186],
[30, 187],
[30, 198],
[30, 209],
[30, 217],
[30, 220],
[30, 238],
[31, 32],
[31, 66],
[31, 86],
[31, 98],
[31, 101],
[31, 104],
[31, 115],
[31, 123],
[31, 127],
[31, 130],
[31, 132],
[31, 134],
[31, 136],
[31, 144],
[31, 150],
[31, 174],
[31, 177],
[31, 186],
[31, 198],
[31, 217],
[31, 220],
[32, 87],
[32, 101],
[32, 102],
[32, 104],
[32, 115],
[32, 123],
[32, 126],
[32, 130],
[32, 144],
[32, 149],
[32, 150],
[32, 151],
[32, 170],
[32, 171],
[32, 172],
[32, 174],
[32, 186],
[32, 187],
[32, 193],
[33, 34],
[33, 35],
[33, 36],
[33, 37],
[33, 38],
[33, 40],
[33, 41],
[33, 43],
[33, 50],
[33, 51],
[33, 53],
[33, 138],
[33, 139],
[33, 147],
[33, 148],
[33, 155],
[33, 167],
[33, 168],
[33, 169],
[33, 181],
[33, 190],
[34, 35],
[34, 36],
[34, 43],
[34, 50],
[34, 53],
[34, 54],
[34, 138],
[34, 169],
[34, 180],
[34, 181],
[34, 188],
[35, 36],
[35, 40],
[35, 43],
[35, 50],
[35, 51],
[35, 53],
[35, 138],
[35, 148],
[35, 169],
[35, 181],
[35, 190],
[36, 37],
[36, 38],
[36, 40],
[36, 43],
[36, 45],
[36, 50],
[36, 51],
[36, 53],
[36, 57],
[36, 138],
[36, 139],
[36, 148],
[36, 162],
[36, 169],
[36, 181],
[36, 190],
[37, 38],
[37, 40],
[37, 41],
[37, 43],
[37, 44],
[37, 45],
[37, 46],
[37, 50],
[37, 51],
[37, 52],
[37, 53],
[37, 57],
[37, 138],
[37, 139],
[37, 142],
[37, 148],
[37, 157],
[37, 169],
[37, 181],
[37, 190],
[38, 39],
[38, 40],
[38, 41],
[38, 42],
[38, 43],
[38, 50],
[38, 52],
[38, 55],
[38, 56],
[38, 57],
[38, 58],
[38, 139],
[38, 148],
[38, 163],
[38, 167],
[38, 169],
[39, 40],
[39, 41],
[39, 42],
[39, 43],
[39, 50],
[39, 55],
[39, 56],
[39, 57],
[39, 58],
[39, 139],
[39, 142],
[39, 146],
[39, 147],
[39, 148],
[39, 157],
[39, 167],
[39, 169],
[40, 41],
[40, 43],
[40, 50],
[40, 51],
[40, 52],
[40, 57],
[40, 138],
[40, 139],
[40, 142],
[40, 148],
[40, 157],
[40, 169],
[40, 181],
[41, 42],
[41, 43],
[41, 44],
[41, 46],
[41, 50],
[41, 52],
[41, 57],
[41, 139],
[41, 142],
[41, 148],
[41, 169],
[41, 181],
[42, 43],
[42, 55],
[42, 56],
[42, 57],
[42, 140],
[42, 142],
[42, 146],
[42, 148],
[42, 153],
[42, 162],
[42, 163],
[42, 167],
[43, 44],
[43, 46],
[43, 50],
[43, 51],
[43, 52],
[43, 53],
[43, 56],
[43, 57],
[43, 142],
[43, 148],
[43, 167],
[43, 169],
[44, 45],
[44, 46],
[44, 50],
[44, 51],
[44, 52],
[44, 139],
[44, 142],
[44, 168],
[45, 46],
[45, 51],
[45, 139],
[45, 142],
[45, 148],
[45, 169],
[45, 181],
[45, 190],
[46, 51],
[46, 52],
[46, 148],
[46, 181],
[47, 48],
[47, 49],
[47, 54],
[47, 70],
[47, 72],
[47, 73],
[47, 180],
[47, 189],
[47, 201],
[47, 202],
[47, 207],
[47, 210],
[47, 211],
[47, 221],
[47, 222],
[47, 223],
[47, 227],
[47, 243],
[47, 244],
[47, 245],
[47, 247],
[47, 253],
[47, 254],
[47, 255],
[48, 49],
[48, 70],
[48, 72],
[48, 73],
[48, 74],
[48, 180],
[48, 189],
[48, 202],
[48, 219],
[48, 222],
[48, 223],
[48, 243],
[48, 254],
[48, 255],
[49, 180],
[49, 202],
[49, 244],
[49, 255],
[50, 51],
[50, 52],
[50, 53],
[50, 54],
[50, 56],
[50, 138],
[50, 139],
[50, 142],
[50, 148],
[50, 167],
[50, 168],
[50, 169],
[50, 180],
[50, 181],
[50, 188],
[51, 52],
[51, 57],
[51, 138],
[51, 139],
[51, 142],
[51, 148],
[51, 153],
[51, 162],
[51, 169],
[51, 181],
[52, 57],
[52, 139],
[52, 142],
[52, 148],
[52, 184],
[52, 190],
[53, 54],
[53, 137],
[53, 138],
[53, 139],
[53, 141],
[53, 147],
[53, 156],
[53, 168],
[53, 169],
[53, 181],
[53, 188],
[53, 190],
[53, 200],
[54, 138],
[54, 180],
[54, 181],
[54, 188],
[54, 189],
[54, 190],
[54, 201],
[54, 202],
[54, 254],
[55, 56],
[55, 57],
[55, 105],
[55, 106],
[55, 114],
[55, 120],
[55, 140],
[55, 142],
[55, 143],
[55, 145],
[55, 146],
[55, 151],
[55, 152],
[55, 153],
[55, 154],
[55, 155],
[55, 158],
[55, 159],
[55, 160],
[55, 162],
[55, 167],
[55, 175],
[55, 177],
[55, 183],
[55, 184],
[55, 191],
[56, 57],
[56, 137],
[56, 139],
[56, 141],
[56, 142],
[56, 146],
[56, 147],
[56, 148],
[56, 153],
[56, 155],
[56, 157],
[56, 167],
[56, 168],
[56, 169],
[56, 181],
[57, 142],
[57, 146],
[57, 148],
[57, 167],
[57, 169],
[58, 59],
[58, 60],
[58, 61],
[58, 62],
[58, 66],
[58, 78],
[58, 121],
[58, 143],
[58, 146],
[58, 152],
[58, 158],
[58, 160],
[58, 161],
[58, 163],
[58, 165],
[58, 166],
[58, 167],
[58, 177],
[58, 178],
[58, 182],
[58, 187],
[58, 195],
[59, 60],
[59, 66],
[59, 106],
[59, 108],
[59, 111],
[59, 140],
[59, 143],
[59, 145],
[59, 152],
[59, 153],
[59, 155],
[59, 158],
[59, 159],
[59, 160],
[59, 161],
[59, 162],
[59, 163],
[59, 165],
[59, 182],
[60, 66],
[60, 146],
[60, 152],
[60, 153],
[60, 154],
[60, 160],
[60, 163],
[61, 62],
[61, 63],
[61, 64],
[61, 65],
[61, 66],
[61, 121],
[61, 158],
[61, 164],
[61, 165],
[61, 166],
[61, 176],
[61, 177],
[61, 194],
[61, 195],
[61, 196],
[62, 63],
[62, 65],
[62, 66],
[62, 121],
[62, 160],
[62, 176],
[62, 177],
[62, 178],
[62, 194],
[62, 195],
[62, 196],
[63, 64],
[63, 65],
[63, 121],
[63, 176],
[63, 194],
[63, 195],
[63, 196],
[64, 65],
[64, 66],
[64, 119],
[64, 121],
[64, 122],
[64, 158],
[64, 164],
[64, 166],
[64, 176],
[64, 177],
[64, 195],
[64, 196],
[65, 66],
[65, 176],
[65, 177],
[65, 178],
[65, 194],
[65, 195],
[65, 196],
[66, 78],
[66, 106],
[66, 116],
[66, 120],
[66, 121],
[66, 143],
[66, 144],
[66, 152],
[66, 158],
[66, 159],
[66, 160],
[66, 161],
[66, 163],
[66, 164],
[66, 165],
[66, 166],
[66, 171],
[66, 172],
[66, 176],
[66, 177],
[66, 178],
[66, 182],
[66, 183],
[66, 192],
[66, 194],
[66, 195],
[66, 196],
[66, 198],
[67, 68],
[67, 69],
[68, 69],
[68, 200],
[68, 201],
[68, 221],
[69, 70],
[69, 71],
[69, 201],
[69, 202],
[69, 221],
[69, 222],
[70, 71],
[70, 72],
[70, 73],
[70, 153],
[70, 189],
[70, 201],
[70, 202],
[70, 221],
[70, 222],
[70, 223],
[70, 243],
[70, 254],
[71, 72],
[71, 74],
[71, 189],
[71, 222],
[72, 73],
[72, 74],
[72, 180],
[72, 189],
[72, 202],
[72, 222],
[72, 223],
[72, 243],
[72, 254],
[73, 74],
[73, 75],
[73, 180],
[73, 189],
[73, 201],
[73, 202],
[73, 219],
[73, 222],
[73, 223],
[73, 254],
[74, 75],
[74, 180],
[74, 189],
[74, 202],
[74, 222],
[74, 254],
[75, 180],
[75, 188],
[75, 189],
[75, 190],
[76, 77],
[76, 78],
[76, 82],
[76, 83],
[76, 85],
[76, 87],
[76, 97],
[76, 102],
[76, 103],
[76, 115],
[76, 116],
[76, 119],
[76, 120],
[76, 122],
[76, 124],
[76, 149],
[76, 164],
[76, 185],
[76, 197],
[76, 199],
[77, 78],
[77, 84],
[77, 85],
[77, 87],
[77, 96],
[77, 99],
[77, 102],
[77, 103],
[77, 104],
[77, 105],
[77, 106],
[77, 112],
[77, 115],
[77, 116],
[77, 117],
[77, 120],
[77, 123],
[77, 124],
[77, 141],
[77, 144],
[77, 149],
[77, 150],
[77, 151],
[77, 159],
[77, 170],
[77, 171],
[77, 174],
[77, 187],
[77, 199],
[77, 220],
[78, 87],
[78, 102],
[78, 103],
[78, 106],
[78, 109],
[78, 112],
[78, 115],
[78, 116],
[78, 119],
[78, 120],
[78, 121],
[78, 124],
[78, 140],
[78, 143],
[78, 149],
[78, 158],
[78, 159],
[78, 161],
[78, 165],
[78, 166],
[78, 172],
[78, 177],
[78, 178],
[78, 182],
[78, 187],
[78, 192],
[78, 199],
[79, 80],
[79, 81],
[79, 82],
[79, 83],
[79, 85],
[79, 88],
[79, 91],
[79, 94],
[79, 97],
[79, 122],
[79, 123],
[79, 133],
[79, 185],
[79, 197],
[79, 198],
[80, 81],
[80, 82],
[80, 83],
[80, 85],
[80, 88],
[80, 89],
[80, 90],
[80, 91],
[80, 92],
[80, 94],
[80, 97],
[80, 123],
[80, 185],
[80, 198],
[81, 82],
[81, 83],
[81, 85],
[81, 88],
[81, 91],
[81, 94],
[81, 97],
[81, 123],
[81, 128],
[81, 185],
[81, 198],
[82, 83],
[82, 84],
[82, 85],
[82, 87],
[82, 88],
[82, 90],
[82, 91],
[82, 94],
[82, 97],
[82, 102],
[82, 115],
[82, 119],
[82, 122],
[82, 123],
[82, 124],
[82, 149],
[82, 185],
[82, 197],
[82, 198],
[82, 199],
[83, 84],
[83, 85],
[83, 86],
[83, 88],
[83, 89],
[83, 90],
[83, 91],
[83, 92],
[83, 93],
[83, 94],
[83, 95],
[83, 97],
[83, 98],
[83, 99],
[83, 100],
[83, 104],
[83, 115],
[83, 119],
[83, 123],
[83, 125],
[83, 127],
[83, 128],
[83, 130],
[83, 133],
[83, 134],
[83, 136],
[83, 149],
[83, 150],
[83, 177],
[83, 185],
[83, 186],
[83, 198],
[83, 217],
[84, 85],
[84, 86],
[84, 87],
[84, 90],
[84, 93],
[84, 94],
[84, 95],
[84, 96],
[84, 99],
[84, 100],
[84, 102],
[84, 103],
[84, 123],
[84, 149],
[84, 174],
[84, 185],
[84, 187],
[84, 199],
[85, 86],
[85, 87],
[85, 88],
[85, 90],
[85, 91],
[85, 94],
[85, 97],
[85, 102],
[85, 115],
[85, 123],
[85, 124],
[85, 149],
[85, 185],
[85, 197],
[85, 198],
[85, 199],
[86, 87],
[86, 89],
[86, 90],
[86, 92],
[86, 93],
[86, 94],
[86, 95],
[86, 96],
[86, 97],
[86, 98],
[86, 99],
[86, 100],
[86, 102],
[86, 123],
[86, 128],
[86, 130],
[86, 133],
[86, 134],
[86, 150],
[86, 185],
[86, 186],
[86, 187],
[86, 198],
[87, 90],
[87, 94],
[87, 96],
[87, 99],
[87, 102],
[87, 103],
[87, 104],
[87, 105],
[87, 106],
[87, 112],
[87, 115],
[87, 116],
[87, 119],
[87, 120],
[87, 121],
[87, 123],
[87, 124],
[87, 149],
[87, 158],
[87, 159],
[87, 161],
[87, 165],
[87, 170],
[87, 185],
[87, 187],
[87, 199],
[88, 89],
[88, 90],
[88, 91],
[88, 92],
[88, 94],
[88, 97],
[88, 100],
[88, 115],
[88, 119],
[88, 122],
[88, 123],
[88, 133],
[88, 149],
[88, 185],
[88, 197],
[88, 198],
[89, 90],
[89, 91],
[89, 92],
[89, 93],
[89, 94],
[89, 95],
[89, 97],
[89, 98],
[89, 99],
[89, 100],
[89, 101],
[89, 115],
[89, 119],
[89, 123],
[89, 127],
[89, 128],
[89, 130],
[89, 133],
[89, 134],
[89, 149],
[89, 150],
[89, 177],
[89, 185],
[89, 186],
[89, 198],
[89, 217],
[90, 93],
[90, 94],
[90, 95],
[90, 96],
[90, 97],
[90, 99],
[90, 102],
[90, 120],
[90, 123],
[90, 135],
[90, 149],
[90, 185],
[90, 187],
[90, 198],
[90, 199],
[91, 92],
[91, 93],
[91, 94],
[91, 97],
[91, 115],
[91, 123],
[91, 128],
[91, 133],
[91, 185],
[91, 198],
[92, 93],
[92, 95],
[92, 97],
[92, 98],
[92, 100],
[92, 115],
[92, 119],
[92, 123],
[92, 128],
[92, 130],
[92, 133],
[92, 149],
[92, 150],
[92, 177],
[92, 185],
[92, 198],
[93, 94],
[93, 95],
[93, 97],
[93, 98],
[93, 99],
[93, 100],
[93, 123],
[93, 130],
[93, 185],
[94, 95],
[94, 96],
[94, 97],
[94, 99],
[94, 123],
[94, 185],
[94, 198],
[95, 96],
[95, 98],
[95, 99],
[95, 100],
[95, 102],
[95, 123],
[95, 128],
[95, 130],
[95, 149],
[95, 150],
[95, 185],
[95, 186],
[95, 187],
[96, 99],
[96, 102],
[96, 103],
[96, 104],
[96, 120],
[96, 123],
[96, 124],
[96, 149],
[96, 185],
[96, 187],
[96, 199],
[97, 98],
[97, 99],
[97, 100],
[97, 115],
[97, 119],
[97, 122],
[97, 123],
[97, 128],
[97, 133],
[97, 149],
[97, 150],
[97, 170],
[97, 185],
[97, 197],
[97, 198],
[97, 217],
[98, 99],
[98, 100],
[98, 101],
[98, 104],
[98, 115],
[98, 119],
[98, 123],
[98, 125],
[98, 127],
[98, 128],
[98, 129],
[98, 130],
[98, 132],
[98, 134],
[98, 149],
[98, 150],
[98, 185],
[98, 186],
[98, 187],
[98, 198],
[98, 217],
[98, 220],
[98, 238],
[99, 100],
[99, 102],
[99, 104],
[99, 116],
[99, 120],
[99, 149],
[99, 185],
[99, 187],
[99, 199],
[100, 101],
[100, 102],
[100, 104],
[100, 115],
[100, 123],
[100, 127],
[100, 128],
[100, 129],
[100, 130],
[100, 133],
[100, 134],
[100, 149],
[100, 150],
[100, 185],
[100, 186],
[100, 187],
[100, 193],
[100, 198],
[100, 217],
[101, 102],
[101, 104],
[101, 115],
[101, 123],
[101, 127],
[101, 130],
[101, 132],
[101, 134],
[101, 136],
[101, 150],
[101, 186],
[101, 187],
[101, 217],
[101, 220],
[102, 103],
[102, 104],
[102, 106],
[102, 115],
[102, 116],
[102, 120],
[102, 121],
[102, 123],
[102, 124],
[102, 149],
[102, 150],
[102, 151],
[102, 158],
[102, 165],
[102, 166],
[102, 170],
[102, 176],
[102, 177],
[102, 182],
[102, 185],
[102, 187],
[102, 199],
[103, 104],
[103, 105],
[103, 106],
[103, 112],
[103, 115],
[103, 116],
[103, 117],
[103, 119],
[103, 120],
[103, 122],
[103, 123],
[103, 124],
[103, 128],
[103, 149],
[103, 159],
[103, 161],
[103, 170],
[103, 187],
[103, 199],
[104, 105],
[104, 127],
[104, 130],
[104, 134],
[104, 136],
[104, 144],
[104, 149],
[104, 150],
[104, 151],
[104, 170],
[104, 171],
[104, 174],
[104, 186],
[104, 187],
[104, 193],
[104, 208],
[104, 209],
[104, 217],
[104, 220],
[105, 106],
[105, 107],
[105, 108],
[105, 109],
[105, 112],
[105, 113],
[105, 115],
[105, 116],
[105, 117],
[105, 118],
[105, 120],
[105, 130],
[105, 143],
[105, 149],
[105, 151],
[105, 159],
[105, 161],
[105, 170],
[105, 171],
[105, 172],
[105, 173],
[105, 182],
[105, 187],
[105, 192],
[105, 193],
[105, 199],
[106, 107],
[106, 108],
[106, 109],
[106, 112],
[106, 114],
[106, 115],
[106, 116],
[106, 118],
[106, 120],
[106, 121],
[106, 124],
[106, 149],
[106, 155],
[106, 158],
[106, 159],
[106, 161],
[106, 164],
[106, 165],
[106, 166],
[106, 170],
[106, 172],
[106, 173],
[106, 177],
[106, 182],
[106, 187],
[106, 192],
[106, 193],
[106, 256],
[106, 257],
[107, 108],
[107, 109],
[107, 110],
[107, 112],
[107, 113],
[107, 114],
[107, 117],
[107, 118],
[107, 170],
[107, 172],
[107, 173],
[107, 174],
[107, 183],
[107, 191],
[107, 192],
[107, 193],
[107, 256],
[107, 257],
[107, 258],
[108, 109],
[108, 110],
[108, 111],
[108, 112],
[108, 114],
[108, 118],
[108, 143],
[108, 151],
[108, 159],
[108, 161],
[108, 162],
[108, 172],
[108, 173],
[108, 175],
[108, 182],
[108, 183],
[108, 184],
[108, 187],
[108, 191],
[108, 192],
[108, 256],
[108, 258],
[109, 110],
[109, 111],
[109, 112],
[109, 114],
[109, 116],
[109, 118],
[109, 120],
[109, 143],
[109, 158],
[109, 159],
[109, 161],
[109, 172],
[109, 173],
[109, 182],
[109, 192],
[109, 256],
[109, 258],
[110, 111],
[110, 112],
[110, 113],
[110, 114],
[110, 118],
[110, 172],
[110, 173],
[110, 175],
[110, 183],
[110, 191],
[110, 192],
[110, 193],
[110, 256],
[110, 257],
[110, 258],
[111, 114],
[111, 118],
[111, 143],
[111, 159],
[111, 161],
[111, 172],
[111, 173],
[111, 182],
[111, 183],
[111, 191],
[111, 192],
[111, 256],
[112, 113],
[112, 114],
[112, 115],
[112, 116],
[112, 117],
[112, 118],
[112, 119],
[112, 120],
[112, 124],
[112, 140],
[112, 143],
[112, 149],
[112, 158],
[112, 159],
[112, 161],
[112, 165],
[112, 170],
[112, 172],
[112, 177],
[112, 182],
[112, 192],
[112, 193],
[112, 256],
[112, 257],
[113, 114],
[113, 117],
[113, 118],
[113, 150],
[113, 151],
[113, 159],
[113, 170],
[113, 171],
[113, 172],
[113, 173],
[113, 174],
[113, 183],
[113, 193],
[113, 220],
[114, 118],
[114, 143],
[114, 151],
[114, 159],
[114, 161],
[114, 162],
[114, 172],
[114, 173],
[114, 174],
[114, 175],
[114, 182],
[114, 183],
[114, 184],
[114, 191],
[114, 192],
[114, 193],
[114, 258],
[115, 116],
[115, 119],
[115, 120],
[115, 122],
[115, 123],
[115, 124],
[115, 128],
[115, 130],
[115, 133],
[115, 134],
[115, 144],
[115, 149],
[115, 151],
[115, 164],
[115, 166],
[115, 170],
[115, 185],
[115, 186],
[115, 187],
[115, 197],
[115, 198],
[115, 199],
[116, 117],
[116, 118],
[116, 119],
[116, 120],
[116, 121],
[116, 122],
[116, 124],
[116, 134],
[116, 140],
[116, 143],
[116, 149],
[116, 158],
[116, 159],
[116, 161],
[116, 164],
[116, 165],
[116, 166],
[116, 170],
[116, 172],
[116, 173],
[116, 176],
[116, 177],
[116, 182],
[116, 187],
[116, 192],
[116, 199],
[116, 256],
[117, 118],
[117, 120],
[117, 149],
[117, 151],
[117, 159],
[117, 170],
[117, 172],
[117, 187],
[117, 193],
[117, 199],
[118, 159],
[118, 172],
[118, 173],
[118, 174],
[118, 182],
[118, 192],
[118, 193],
[118, 256],
[118, 258],
[119, 120],
[119, 121],
[119, 122],
[119, 123],
[119, 124],
[119, 125],
[119, 128],
[119, 133],
[119, 134],
[119, 149],
[119, 158],
[119, 164],
[119, 177],
[119, 185],
[119, 195],
[119, 197],
[119, 198],
[119, 199],
[120, 121],
[120, 124],
[120, 133],
[120, 134],
[120, 140],
[120, 141],
[120, 143],
[120, 144],
[120, 145],
[120, 149],
[120, 151],
[120, 155],
[120, 158],
[120, 159],
[120, 161],
[120, 162],
[120, 165],
[120, 170],
[120, 172],
[120, 177],
[120, 182],
[120, 184],
[120, 187],
[120, 191],
[120, 192],
[120, 199],
[120, 238],
[121, 122],
[121, 124],
[121, 133],
[121, 143],
[121, 149],
[121, 158],
[121, 164],
[121, 165],
[121, 166],
[121, 172],
[121, 176],
[121, 177],
[121, 182],
[121, 187],
[121, 192],
[121, 195],
[122, 123],
[122, 124],
[122, 128],
[122, 133],
[122, 134],
[122, 149],
[122, 164],
[122, 177],
[122, 185],
[122, 197],
[123, 124],
[123, 125],
[123, 127],
[123, 128],
[123, 130],
[123, 132],
[123, 133],
[123, 134],
[123, 136],
[123, 149],
[123, 150],
[123, 151],
[123, 161],
[123, 177],
[123, 185],
[123, 186],
[123, 187],
[123, 197],
[123, 198],
[123, 199],
[123, 217],
[124, 133],
[124, 134],
[124, 149],
[124, 158],
[124, 159],
[124, 162],
[124, 163],
[124, 164],
[124, 165],
[124, 170],
[124, 172],
[124, 177],
[124, 185],
[124, 197],
[124, 199],
[125, 126],
[125, 127],
[125, 128],
[125, 129],
[125, 130],
[125, 131],
[125, 132],
[125, 133],
[125, 134],
[125, 150],
[125, 215],
[125, 217],
[125, 236],
[125, 238],
[125, 250],
[126, 127],
[126, 132],
[126, 135],
[126, 136],
[126, 203],
[126, 204],
[126, 212],
[126, 214],
[126, 215],
[126, 216],
[126, 217],
[126, 224],
[126, 231],
[126, 233],
[126, 237],
[126, 238],
[126, 248],
[126, 249],
[126, 250],
[127, 128],
[127, 129],
[127, 130],
[127, 132],
[127, 134],
[127, 136],
[127, 150],
[127, 158],
[127, 185],
[127, 186],
[127, 217],
[127, 238],
[127, 250],
[128, 129],
[128, 130],
[128, 131],
[128, 132],
[128, 133],
[128, 134],
[128, 150],
[128, 177],
[128, 185],
[128, 198],
[128, 217],
[128, 236],
[128, 238],
[128, 250],
[129, 130],
[129, 132],
[129, 134],
[129, 217],
[129, 238],
[130, 132],
[130, 134],
[130, 136],
[130, 150],
[130, 185],
[130, 186],
[130, 198],
[130, 217],
[130, 238],
[131, 132],
[131, 133],
[131, 135],
[131, 203],
[131, 215],
[131, 231],
[131, 236],
[131, 237],
[131, 240],
[131, 241],
[131, 248],
[131, 249],
[131, 250],
[131, 251],
[131, 252],
[132, 133],
[132, 134],
[132, 186],
[132, 215],
[132, 217],
[132, 236],
[132, 238],
[132, 241],
[133, 134],
[133, 165],
[133, 177],
[133, 185],
[133, 198],
[133, 217],
[133, 236],
[133, 250],
[134, 135],
[134, 136],
[134, 144],
[134, 149],
[134, 150],
[134, 158],
[134, 165],
[134, 166],
[134, 174],
[134, 185],
[134, 186],
[134, 187],
[134, 198],
[134, 205],
[134, 217],
[134, 220],
[134, 235],
[134, 250],
[135, 136],
[135, 203],
[135, 204],
[135, 205],
[135, 206],
[135, 207],
[135, 208],
[135, 212],
[135, 213],
[135, 214],
[135, 215],
[135, 216],
[135, 217],
[135, 218],
[135, 220],
[135, 224],
[135, 225],
[135, 227],
[135, 231],
[135, 233],
[135, 234],
[135, 235],
[135, 237],
[135, 242],
[135, 248],
[135, 249],
[135, 250],
[136, 144],
[136, 150],
[136, 159],
[136, 186],
[136, 205],
[136, 209],
[136, 211],
[136, 217],
[136, 218],
[136, 220],
[136, 234],
[136, 235],
[136, 238],
[137, 138],
[137, 139],
[137, 141],
[137, 147],
[137, 156],
[137, 157],
[137, 168],
[137, 171],
[137, 179],
[137, 181],
[138, 139],
[138, 148],
[138, 168],
[138, 169],
[138, 180],
[138, 181],
[138, 190],
[139, 147],
[139, 148],
[139, 155],
[139, 156],
[139, 157],
[139, 167],
[139, 168],
[139, 169],
[139, 181],
[140, 141],
[140, 142],
[140, 143],
[140, 144],
[140, 145],
[140, 146],
[140, 151],
[140, 153],
[140, 155],
[140, 158],
[140, 159],
[140, 162],
[140, 167],
[140, 171],
[140, 174],
[140, 175],
[140, 179],
[140, 183],
[140, 184],
[141, 142],
[141, 144],
[141, 145],
[141, 147],
[141, 151],
[141, 155],
[141, 156],
[141, 159],
[141, 168],
[141, 171],
[141, 179],
[141, 188],
[142, 145],
[142, 146],
[142, 147],
[142, 148],
[142, 153],
[142, 155],
[142, 157],
[142, 162],
[142, 167],
[142, 168],
[142, 169],
[142, 175],
[142, 184],
[143, 144],
[143, 145],
[143, 146],
[143, 151],
[143, 152],
[143, 153],
[143, 158],
[143, 159],
[143, 160],
[143, 162],
[143, 166],
[143, 167],
[143, 171],
[143, 173],
[143, 174],
[143, 175],
[143, 177],
[143, 182],
[143, 183],
[143, 184],
[143, 191],
[144, 145],
[144, 147],
[144, 150],
[144, 151],
[144, 153],
[144, 159],
[144, 162],
[144, 171],
[144, 174],
[144, 175],
[144, 179],
[144, 183],
[144, 184],
[144, 187],
[144, 207],
[144, 218],
[144, 219],
[144, 220],
[145, 146],
[145, 147],
[145, 151],
[145, 153],
[145, 155],
[145, 159],
[145, 162],
[145, 165],
[145, 167],
[145, 175],
[145, 184],
[145, 191],
[146, 147],
[146, 148],
[146, 152],
[146, 153],
[146, 155],
[146, 161],
[146, 162],
[146, 167],
[146, 175],
[146, 184],
[147, 148],
[147, 155],
[147, 156],
[147, 167],
[147, 168],
[147, 175],
[147, 179],
[148, 157],
[148, 167],
[148, 169],
[149, 150],
[149, 151],
[149, 158],
[149, 159],
[149, 161],
[149, 164],
[149, 165],
[149, 166],
[149, 170],
[149, 172],
[149, 177],
[149, 182],
[149, 185],
[149, 187],
[149, 192],
[149, 197],
[149, 199],
[149, 220],
[150, 151],
[150, 176],
[150, 185],
[150, 186],
[150, 187],
[150, 198],
[150, 217],
[150, 220],
[150, 235],
[151, 153],
[151, 159],
[151, 162],
[151, 170],
[151, 171],
[151, 172],
[151, 173],
[151, 174],
[151, 175],
[151, 178],
[151, 183],
[151, 184],
[151, 187],
[151, 191],
[151, 193],
[151, 220],
[152, 153],
[152, 154],
[152, 158],
[152, 159],
[152, 160],
[152, 161],
[152, 162],
[152, 163],
[152, 165],
[152, 166],
[152, 177],
[152, 178],
[152, 182],
[152, 184],
[153, 154],
[153, 159],
[153, 162],
[153, 165],
[153, 167],
[153, 175],
[153, 179],
[153, 183],
[153, 184],
[154, 162],
[154, 163],
[154, 167],
[155, 156],
[155, 157],
[155, 167],
[155, 168],
[155, 179],
[155, 184],
[156, 157],
[156, 168],
[156, 179],
[156, 211],
[156, 223],
[157, 167],
[157, 168],
[157, 169],
[158, 159],
[158, 160],
[158, 161],
[158, 164],
[158, 165],
[158, 166],
[158, 172],
[158, 176],
[158, 177],
[158, 182],
[158, 187],
[158, 192],
[158, 195],
[158, 196],
[158, 199],
[159, 160],
[159, 161],
[159, 162],
[159, 165],
[159, 172],
[159, 173],
[159, 174],
[159, 175],
[159, 182],
[159, 183],
[159, 184],
[159, 187],
[159, 192],
[159, 195],
[159, 199],
[160, 161],
[160, 163],
[160, 165],
[160, 172],
[160, 177],
[160, 178],
[160, 182],
[160, 187],
[160, 192],
[161, 162],
[161, 163],
[161, 165],
[161, 170],
[161, 172],
[161, 173],
[161, 177],
[161, 182],
[161, 183],
[161, 184],
[161, 187],
[161, 192],
[162, 163],
[162, 165],
[162, 167],
[162, 174],
[162, 175],
[162, 182],
[162, 183],
[162, 184],
[162, 191],
[163, 178],
[164, 165],
[164, 166],
[164, 177],
[164, 195],
[165, 166],
[165, 172],
[165, 177],
[165, 182],
[165, 184],
[165, 187],
[165, 192],
[165, 195],
[165, 196],
[166, 172],
[166, 177],
[166, 182],
[166, 192],
[166, 195],
[166, 250],
[167, 168],
[167, 169],
[167, 175],
[167, 184],
[168, 169],
[168, 179],
[168, 181],
[169, 181],
[170, 171],
[170, 172],
[170, 174],
[170, 187],
[170, 193],
[170, 199],
[171, 172],
[171, 174],
[171, 175],
[171, 179],
[171, 183],
[171, 187],
[171, 193],
[171, 210],
[172, 173],
[172, 174],
[172, 176],
[172, 177],
[172, 178],
[172, 182],
[172, 183],
[172, 187],
[172, 191],
[172, 192],
[172, 193],
[173, 174],
[173, 175],
[173, 182],
[173, 183],
[173, 191],
[173, 192],
[173, 193],
[174, 175],
[174, 183],
[174, 193],
[174, 220],
[175, 183],
[175, 184],
[175, 191],
[176, 177],
[176, 178],
[176, 182],
[176, 194],
[176, 195],
[176, 196],
[177, 178],
[177, 182],
[177, 187],
[177, 192],
[177, 194],
[177, 195],
[177, 196],
[177, 198],
[178, 182],
[178, 187],
[178, 194],
[178, 196],
[179, 180],
[179, 181],
[179, 188],
[179, 210],
[179, 211],
[179, 244],
[179, 255],
[180, 181],
[180, 188],
[180, 189],
[180, 190],
[180, 201],
[180, 202],
[180, 222],
[180, 223],
[180, 254],
[180, 255],
[181, 188],
[181, 190],
[182, 183],
[182, 184],
[182, 191],
[182, 192],
[183, 184],
[183, 191],
[183, 193],
[183, 220],
[184, 191],
[185, 186],
[185, 187],
[185, 197],
[185, 198],
[185, 199],
[185, 217],
[186, 187],
[186, 198],
[186, 217],
[186, 220],
[187, 199],
[188, 189],
[188, 190],
[189, 190],
[189, 201],
[189, 202],
[189, 222],
[189, 223],
[189, 254],
[191, 192],
[191, 193],
[192, 193],
[192, 256],
[192, 257],
[192, 258],
[194, 195],
[194, 196],
[195, 196],
[197, 198],
[197, 199],
[198, 199],
[200, 201],
[200, 202],
[200, 204],
[200, 206],
[200, 207],
[200, 208],
[200, 210],
[200, 212],
[200, 213],
[200, 218],
[200, 223],
[200, 224],
[200, 225],
[200, 226],
[200, 227],
[200, 228],
[200, 229],
[200, 242],
[200, 243],
[200, 244],
[200, 245],
[200, 246],
[200, 247],
[200, 253],
[200, 255],
[201, 202],
[201, 221],
[201, 222],
[201, 223],
[201, 228],
[201, 243],
[201, 246],
[201, 247],
[201, 254],
[202, 210],
[202, 211],
[202, 222],
[202, 223],
[202, 226],
[202, 228],
[202, 243],
[202, 247],
[202, 253],
[202, 254],
[202, 255],
[203, 204],
[203, 205],
[203, 206],
[203, 208],
[203, 209],
[203, 212],
[203, 214],
[203, 215],
[203, 216],
[203, 218],
[203, 224],
[203, 228],
[203, 230],
[203, 231],
[203, 232],
[203, 233],
[203, 236],
[203, 237],
[203, 241],
[203, 242],
[203, 246],
[203, 248],
[203, 249],
[203, 250],
[204, 205],
[204, 206],
[204, 207],
[204, 208],
[204, 209],
[204, 212],
[204, 213],
[204, 214],
[204, 216],
[204, 218],
[204, 219],
[204, 224],
[204, 225],
[204, 226],
[204, 227],
[204, 228],
[204, 231],
[204, 233],
[204, 234],
[204, 237],
[204, 241],
[204, 242],
[204, 243],
[204, 245],
[204, 246],
[204, 249],
[205, 208],
[205, 214],
[205, 215],
[205, 216],
[205, 217],
[205, 218],
[205, 220],
[205, 224],
[205, 233],
[205, 234],
[205, 235],
[205, 250],
[206, 207],
[206, 208],
[206, 212],
[206, 213],
[206, 215],
[206, 218],
[206, 225],
[206, 227],
[206, 230],
[206, 231],
[206, 232],
[206, 233],
[206, 234],
[206, 237],
[206, 242],
[206, 248],
[206, 249],
[206, 251],
[206, 253],
[207, 208],
[207, 212],
[207, 213],
[207, 218],
[207, 225],
[207, 227],
[207, 231],
[207, 234],
[207, 237],
[207, 242],
[207, 245],
[207, 249],
[207, 253],
[208, 210],
[208, 212],
[208, 213],
[208, 214],
[208, 218],
[208, 219],
[208, 220],
[208, 224],
[208, 225],
[208, 226],
[208, 227],
[208, 229],
[208, 231],
[208, 233],
[208, 234],
[208, 235],
[208, 242],
[208, 245],
[208, 249],
[209, 210],
[209, 211],
[209, 218],
[209, 219],
[209, 220],
[209, 224],
[209, 226],
[209, 229],
[209, 233],
[209, 234],
[209, 235],
[209, 242],
[209, 244],
[209, 245],
[210, 211],
[210, 219],
[210, 224],
[210, 225],
[210, 226],
[210, 227],
[210, 228],
[210, 229],
[210, 234],
[210, 242],
[210, 243],
[210, 244],
[210, 245],
[210, 246],
[210, 247],
[210, 253],
[210, 254],
[210, 255],
[211, 219],
[211, 223],
[211, 229],
[211, 244],
[211, 255],
[212, 213],
[212, 214],
[212, 215],
[212, 216],
[212, 218],
[212, 224],
[212, 230],
[212, 231],
[212, 232],
[212, 233],
[212, 237],
[212, 241],
[212, 242],
[212, 245],
[212, 248],
[212, 249],
[212, 250],
[212, 251],
[213, 214],
[213, 218],
[213, 219],
[213, 224],
[213, 225],
[213, 226],
[213, 227],
[213, 228],
[213, 231],
[213, 234],
[213, 237],
[213, 242],
[213, 245],
[213, 246],
[213, 247],
[213, 249],
[213, 253],
[214, 215],
[214, 216],
[214, 218],
[214, 219],
[214, 220],
[214, 224],
[214, 226],
[214, 231],
[214, 232],
[214, 233],
[214, 234],
[214, 235],
[214, 237],
[214, 241],
[214, 242],
[214, 249],
[214, 250],
[215, 216],
[215, 217],
[215, 230],
[215, 231],
[215, 232],
[215, 233],
[215, 236],
[215, 237],
[215, 238],
[215, 239],
[215, 241],
[215, 248],
[215, 249],
[215, 250],
[215, 251],
[215, 252],
[216, 217],
[216, 218],
[216, 231],
[216, 233],
[216, 234],
[216, 235],
[216, 237],
[216, 238],
[216, 249],
[216, 250],
[217, 220],
[217, 233],
[217, 235],
[217, 238],
[218, 219],
[218, 220],
[218, 224],
[218, 225],
[218, 227],
[218, 233],
[218, 234],
[218, 235],
[218, 242],
[218, 245],
[218, 249],
[219, 220],
[219, 222],
[219, 224],
[219, 226],
[219, 228],
[219, 229],
[219, 234],
[219, 242],
[219, 243],
[219, 244],
[219, 245],
[219, 247],
[219, 253],
[219, 254],
[219, 255],
[220, 229],
[220, 235],
[220, 244],
[221, 222],
[221, 223],
[221, 247],
[222, 223],
[222, 243],
[222, 254],
[223, 243],
[223, 247],
[223, 254],
[223, 255],
[224, 225],
[224, 226],
[224, 227],
[224, 233],
[224, 234],
[224, 242],
[224, 245],
[225, 226],
[225, 227],
[225, 228],
[225, 231],
[225, 234],
[225, 242],
[225, 243],
[225, 245],
[225, 246],
[225, 251],
[225, 253],
[226, 227],
[226, 228],
[226, 229],
[226, 234],
[226, 242],
[226, 243],
[226, 244],
[226, 245],
[226, 246],
[226, 247],
[226, 253],
[226, 255],
[227, 228],
[227, 229],
[227, 231],
[227, 234],
[227, 242],
[227, 243],
[227, 245],
[227, 246],
[227, 253],
[228, 229],
[228, 243],
[228, 245],
[228, 246],
[228, 247],
[228, 253],
[228, 254],
[229, 234],
[229, 242],
[229, 243],
[229, 244],
[229, 245],
[229, 253],
[230, 231],
[230, 232],
[230, 237],
[230, 239],
[230, 240],
[230, 241],
[230, 248],
[230, 249],
[230, 251],
[231, 232],
[231, 233],
[231, 234],
[231, 237],
[231, 249],
[231, 251],
[232, 233],
[232, 237],
[232, 241],
[232, 248],
[232, 249],
[232, 250],
[232, 251],
[233, 234],
[233, 235],
[233, 237],
[233, 242],
[233, 248],
[233, 249],
[233, 250],
[234, 235],
[234, 242],
[234, 245],
[234, 246],
[235, 243],
[236, 237],
[236, 238],
[236, 241],
[236, 250],
[237, 238],
[237, 239],
[237, 240],
[237, 241],
[237, 248],
[237, 249],
[237, 250],
[237, 251],
[238, 250],
[239, 240],
[239, 241],
[239, 251],
[239, 252],
[240, 241],
[240, 251],
[241, 248],
[241, 249],
[241, 250],
[241, 251],
[241, 252],
[242, 243],
[242, 244],
[242, 245],
[242, 246],
[242, 248],
[242, 249],
[242, 253],
[243, 244],
[243, 245],
[243, 246],
[243, 247],
[243, 253],
[243, 254],
[243, 255],
[244, 245],
[244, 253],
[244, 255],
[245, 246],
[245, 247],
[245, 248],
[245, 253],
[245, 255],
[246, 247],
[246, 249],
[246, 253],
[247, 253],
[247, 254],
[248, 249],
[248, 250],
[248, 252],
[249, 250],
[249, 251],
[251, 252],
[253, 254],
[253, 255],
[254, 255],
[256, 257],
[256, 258],
[257, 258],
];
original_rsis = [13, 63, 129, 78, 53, 135, 75, 8, 47, 128, 130, 102, 80, 108, 131, 71, 64, 100, 7, 43, 124, 120, 103, 125, 87, 40, 15, 106, 81, 81, 9, 73, 96, 34, 104, 60, 89, 18, 115, 95, 74, 77, 102, 35, 65, 92, 34, 111, 33, 96, 112, 137, 105, 86, 9, 16, 68, 29, 89, 5, 77, 18, 121, 3, 126, 5, 58, 36, 8, 16, 61, 62, 10, 43, 125, 125, 100, 18, 111, 52, 114, 81, 34, 113, 126, 127, 45, 105, 111, 135, 10, 74, 118, 108, 60, 72, 29, 136, 95, 67, 52, 16, 102, 44, 83, 97, 128, 106, 0, 108, 48, 66, 18, 4, 72, 128, 53, 119, 88, 65, 15, 59, 123, 12, 95, 119, 119, 20, 82, 87, 76, 46, 107, 41, 99, 62, 31, 48, 99, 3, 122, 114, 58, 79, 2, 134, 63, 75, 52, 117, 8, 139, 6, 22, 92, 108, 134, 75, 43, 126, 70, 89, 38, 64, 113, 114, 70, 23, 65, 13, 93, 59, 78, 85, 112, 60, 102, 36, 131, 49, 61, 48, 83, 9, 93, 128, 119, 69, 93, 66, 133, 102, 76, 94, 87, 26, 3, 12, 79, 31, 89, 80, 116, 118, 108, 120, 121, 6, 14, 61, 82, 50, 129, 42, 129, 112, 34, 50, 85, 65, 22, 92, 12, 63, 21, 6, 81, 14, 68, 20, 39, 1, 52, 29, 69, 31, 68, 117, 20, 4, 10, 91, 137, 78, 61, 87, 101, 57, 115, 21, 105, 31, 121, 69, 129, 12, 113, 63, 26];
